c File: flat30_3_0.col
c
c SOURCE: Joseph Culberson (joe@cs.ualberta.ca)
c DESCRIPTION: Quasi-random coloring problem
c              generated with flatness = 0
c                             probability = 0.200
c                             known coloring = 3
c                             random seed = 237253
c              Creation Date:  Fri Nov 29 22:02:15 1996
c Maximum degree = 6 Minimum degree = 0
c
c cnf created by edge2cnf
p cnf 90 300
-1 -2 0
-1 -3 0
-2 -3 0
1 2 3 0
-4 -5 0
-4 -6 0
-5 -6 0
4 5 6 0
-7 -8 0
-7 -9 0
-8 -9 0
7 8 9 0
-10 -11 0
-10 -12 0
-11 -12 0
10 11 12 0
-13 -14 0
-13 -15 0
-14 -15 0
13 14 15 0
-16 -17 0
-16 -18 0
-17 -18 0
16 17 18 0
-19 -20 0
-19 -21 0
-20 -21 0
19 20 21 0
-22 -23 0
-22 -24 0
-23 -24 0
22 23 24 0
-25 -26 0
-25 -27 0
-26 -27 0
25 26 27 0
-28 -29 0
-28 -30 0
-29 -30 0
28 29 30 0
-31 -32 0
-31 -33 0
-32 -33 0
31 32 33 0
-34 -35 0
-34 -36 0
-35 -36 0
34 35 36 0
-37 -38 0
-37 -39 0
-38 -39 0
37 38 39 0
-40 -41 0
-40 -42 0
-41 -42 0
40 41 42 0
-43 -44 0
-43 -45 0
-44 -45 0
43 44 45 0
-46 -47 0
-46 -48 0
-47 -48 0
46 47 48 0
-49 -50 0
-49 -51 0
-50 -51 0
49 50 51 0
-52 -53 0
-52 -54 0
-53 -54 0
52 53 54 0
-55 -56 0
-55 -57 0
-56 -57 0
55 56 57 0
-58 -59 0
-58 -60 0
-59 -60 0
58 59 60 0
-61 -62 0
-61 -63 0
-62 -63 0
61 62 63 0
-64 -65 0
-64 -66 0
-65 -66 0
64 65 66 0
-67 -68 0
-67 -69 0
-68 -69 0
67 68 69 0
-70 -71 0
-70 -72 0
-71 -72 0
70 71 72 0
-73 -74 0
-73 -75 0
-74 -75 0
73 74 75 0
-76 -77 0
-76 -78 0
-77 -78 0
76 77 78 0
-79 -80 0
-79 -81 0
-80 -81 0
79 80 81 0
-82 -83 0
-82 -84 0
-83 -84 0
82 83 84 0
-85 -86 0
-85 -87 0
-86 -87 0
85 86 87 0
-88 -89 0
-88 -90 0
-89 -90 0
88 89 90 0
-31 -1 0
-32 -2 0
-33 -3 0
-34 -1 0
-35 -2 0
-36 -3 0
-52 -1 0
-53 -2 0
-54 -3 0
-73 -1 0
-74 -2 0
-75 -3 0
-76 -1 0
-77 -2 0
-78 -3 0
-85 -1 0
-86 -2 0
-87 -3 0
-34 -4 0
-35 -5 0
-36 -6 0
-46 -4 0
-47 -5 0
-48 -6 0
-49 -4 0
-50 -5 0
-51 -6 0
-64 -4 0
-65 -5 0
-66 -6 0
-70 -4 0
-71 -5 0
-72 -6 0
-37 -7 0
-38 -8 0
-39 -9 0
-79 -7 0
-80 -8 0
-81 -9 0
-31 -10 0
-32 -11 0
-33 -12 0
-43 -10 0
-44 -11 0
-45 -12 0
-61 -10 0
-62 -11 0
-63 -12 0
-82 -10 0
-83 -11 0
-84 -12 0
-88 -10 0
-89 -11 0
-90 -12 0
-31 -13 0
-32 -14 0
-33 -15 0
-34 -13 0
-35 -14 0
-36 -15 0
-43 -13 0
-44 -14 0
-45 -15 0
-70 -13 0
-71 -14 0
-72 -15 0
-82 -13 0
-83 -14 0
-84 -15 0
-88 -13 0
-89 -14 0
-90 -15 0
-40 -19 0
-41 -20 0
-42 -21 0
-46 -19 0
-47 -20 0
-48 -21 0
-52 -19 0
-53 -20 0
-54 -21 0
-73 -19 0
-74 -20 0
-75 -21 0
-61 -22 0
-62 -23 0
-63 -24 0
-70 -22 0
-71 -23 0
-72 -24 0
-85 -22 0
-86 -23 0
-87 -24 0
-43 -25 0
-44 -26 0
-45 -27 0
-52 -25 0
-53 -26 0
-54 -27 0
-58 -25 0
-59 -26 0
-60 -27 0
-79 -25 0
-80 -26 0
-81 -27 0
-49 -28 0
-50 -29 0
-51 -30 0
-55 -28 0
-56 -29 0
-57 -30 0
-64 -28 0
-65 -29 0
-66 -30 0
-76 -28 0
-77 -29 0
-78 -30 0
-79 -28 0
-80 -29 0
-81 -30 0
-67 -31 0
-68 -32 0
-69 -33 0
-70 -34 0
-71 -35 0
-72 -36 0
-79 -34 0
-80 -35 0
-81 -36 0
-88 -34 0
-89 -35 0
-90 -36 0
-64 -37 0
-65 -38 0
-66 -39 0
-73 -37 0
-74 -38 0
-75 -39 0
-79 -40 0
-80 -41 0
-81 -42 0
-64 -43 0
-65 -44 0
-66 -45 0
-67 -43 0
-68 -44 0
-69 -45 0
-70 -46 0
-71 -47 0
-72 -48 0
-85 -46 0
-86 -47 0
-87 -48 0
-88 -46 0
-89 -47 0
-90 -48 0
-64 -52 0
-65 -53 0
-66 -54 0
-85 -52 0
-86 -53 0
-87 -54 0
-61 -55 0
-62 -56 0
-63 -57 0
-79 -55 0
-80 -56 0
-81 -57 0
-88 -55 0
-89 -56 0
-90 -57 0
-70 -58 0
-71 -59 0
-72 -60 0
-76 -58 0
-77 -59 0
-78 -60 0
-85 -58 0
-86 -59 0
-87 -60 0
